c status 280 1469274501404
c status 210 1469274501421
c status 189 1469274502718
c status 188 1469274644315
c status 186 1469274664253
s td 204 186 426
b 1 264 281
b 2 316 331
b 3 328 355
b 4 303 378
b 5 341 135
b 6 230 63
b 7 413 90
b 8 8 108 141
b 9 165 241 175
b 10 66 168 335
b 11 156 75 223
b 12 75 223 186
b 13 213 186 177
b 14 269 362 142
b 15 315 343 333
b 16 275 337 306
b 17 164 386 232
b 18 331 351 123
b 19 360 357 339
b 20 326 355 349
b 21 400 168 205
b 22 239 170 249
b 23 118 67 225 217
b 24 67 108 225 217 150 207 237
b 25 108 225 97 141 217 150 207 39 160 237 120
b 26 215 419 29 313 422 97 397 163 185 132 69 282 31 10 211 129 60 388 252 284 174 16 110
b 27 419 119 29 50 313 422 225 97 397 163 185 260 132 69 192 199 177 194 162 210 201 122 282 31 10 211 129 60 113 58 388 65 187 252 284 402 243 174 16 110
b 28 119 29 50 313 422 225 97 397 163 185 260 132 69 192 199 177 194 162 210 201 190 122 282 31 10 211 129 60 113 58 388 41 65 40 187 252 284 402 243 174 257 15 16 110
b 29 406 29 50 313 198 212 150 99 185 260 261 19 417 424 38 144 249 192 32 190 122 83 138 347 369 365 26 181 408 395 23 258 73 65 147 283
b 30 29 50 313 422 225 412 198 97 397 212 150 208 163 99 185 260 132 6 261 232 69 19 417 373 335 424 38 183 144 249 192 32 199 177 194 162 210 201 190 122 282 17 52 401 83 138 347 369 226 31 10 365 211 129 26 60 181 408 395 113 23 58 388 258 145 73 228 41 65 40 187 252 284 402 243 174 257 147 15 16 283 110
b 31 50 313 422 225 412 198 97 397 212 150 208 163 99 185 260 132 6 261 232 69 19 417 130 373 335 424 38 183 144 249 192 32 199 177 194 162 210 201 190 122 282 17 52 401 83 138 347 369 226 31 10 365 211 129 26 60 181 408 395 113 23 58 388 258 145 73 228 41 65 40 187 252 284 402 243 174 257 147 15 16 283 110
b 32 202 368 313 84
b 33 136 223 227 368 422 412 198 141 153 261 72 396 273 85 237 190 83 31 372 376 64 157 234 284 283
b 34 223 227 368 422 225 412 198 127 97 141 185 153 394 261 72 396 235 273 85 237 175 186 210 190 180 421 83 31 70 405 372 228 371 79 59 236 41 376 64 157 251 252 234 284 283 218 184 137
b 35 227 368 422 225 412 198 127 97 141 297 185 153 394 261 72 396 235 273 85 237 175 186 210 190 180 421 83 31 70 405 372 228 371 79 151 59 236 41 376 64 157 251 252 234 284 246 283 218 184 137
b 36 238 286 368 261 276 130 9 90 162 180 224 197 371 195 79 376 259 98 290 257 15 184 245
b 37 368 313 422 225 412 198 127 97 141 297 185 153 394 261 276 130 45 9 90 72 396 235 273 85 237 175 186 162 210 190 180 421 83 31 70 405 224 197 372 228 371 195 79 151 59 236 41 376 64 157 251 252 234 284 259 98 290 246 257 15 84 283 218 184 245 137
b 38 399 225 76 226 287
b 39 313 422 225 412 198 127 97 397 141 212 297 150 208 163 99 185 260 132 153 6 394 261 232 69 276 19 417 130 45 373 335 424 38 183 9 90 144 249 72 396 235 273 85 237 192 32 199 175 186 177 194 162 210 201 190 180 122 421 282 17 52 401 83 138 347 369 226 31 10 365 211 129 26 60 70 181 408 405 395 113 224 197 23 58 388 258 145 372 73 228 371 195 79 151 59 236 41 376 64 157 65 40 187 251 252 234 284 259 402 98 290 243 174 246 257 147 15 84 16 283 218 184 245 137 110
b 40 422 225 412 198 127 97 397 141 212 297 150 208 163 99 185 260 132 153 6 394 261 232 69 276 19 417 130 45 373 335 158 424 38 183 9 219 90 144 249 72 396 235 273 85 237 140 192 32 199 175 186 177 194 162 210 201 190 180 122 421 282 17 52 401 83 138 347 369 226 31 10 365 211 129 26 60 70 181 408 405 395 113 224 197 23 58 388 258 145 372 73 228 371 195 79 151 59 236 41 376 64 157 65 40 187 251 252 234 284 259 402 98 290 243 174 246 257 147 15 84 16 283 218 184 245 137 110
b 41 225 412 198 127 97 397 37 141 212 217 297 150 208 163 99 185 260 132 153 6 394 261 232 69 276 19 207 391 417 130 45 39 373 335 158 424 76 38 183 9 219 90 144 249 72 396 160 235 273 85 237 140 192 32 199 175 186 177 194 162 210 201 190 180 120 122 421 282 17 52 401 83 138 347 369 226 31 10 365 211 129 26 60 70 181 408 405 395 113 224 197 23 58 388 258 145 372 73 228 371 195 79 151 59 236 41 376 64 157 65 40 187 251 252 234 284 259 402 98 290 243 174 287 246 257 147 15 84 16 283 218 184 245 137 110
b 42 36 167 69 170 93 256 226 259 174 245
b 43 167 57 127 97 222 69 170 93 256 226 259 174 245
b 44 57 106 198 127 97 217 222 69 373 76 170 93 256 139 226 259 174 245
b 45 106 114 198 127 97 217 222 69 207 373 76 370 170 93 256 139 226 259 174 245
b 46 114 198 127 97 217 222 69 207 373 76 55 370 170 93 256 139 226 26 259 174 245
b 47 198 127 97 397 37 141 212 217 222 297 150 208 163 99 185 260 132 153 6 394 261 232 69 276 19 207 391 417 130 45 39 373 335 158 424 76 55 38 183 9 219 90 370 144 170 249 93 72 396 160 235 273 85 237 140 256 192 32 199 175 186 139 177 194 162 210 201 190 180 120 122 421 282 17 52 401 83 138 347 369 226 31 10 365 211 129 26 60 70 181 408 405 395 113 224 197 23 58 388 258 145 372 73 228 371 195 79 151 59 236 41 376 64 157 65 40 187 251 252 234 284 259 402 98 290 243 174 287 246 257 147 15 84 16 283 218 184 245 137 110
b 48 97 397 37 141 212 217 222 297 150 208 163 99 185 260 132 153 6 394 261 232 69 276 19 207 391 417 130 45 39 373 335 158 424 76 55 38 183 9 92 219 90 87 370 144 170 249 93 72 396 160 235 273 85 237 140 256 192 32 199 175 186 139 177 194 162 210 201 190 180 120 122 421 282 17 52 401 83 138 347 369 226 31 10 365 211 129 26 60 70 181 408 405 395 113 224 197 23 58 388 258 382 145 372 73 228 371 195 79 151 59 236 41 376 64 157 65 40 187 251 252 234 284 259 402 98 290 243 174 287 246 257 147 15 84 16 283 218 184 245 137 110
b 49 358 115 163 99 260 159 85 122 421 281 401 347 369 228 283
b 50 115 214 265 13 112 216 163 99 260 153 6 394 411 11 39 42 159 160 235 85 403 122 421 281 401 347 369 124 211 70 224 197 23 58 73 228 59 176 376 407 157 287 2 86 257 390 147 16 283 110
b 51 214 265 13 112 216 163 99 260 153 6 394 411 11 39 42 159 160 235 85 175 403 122 421 281 401 83 347 369 124 211 70 224 197 23 58 73 228 59 176 376 407 157 287 2 86 257 390 147 16 283 184 110
b 52 49 88 294 265 386 104 163 260 335 387 126 12 268 38 423 120 193 379 258 41 426 287 267
b 53 88 294 265 386 104 163 260 335 387 126 12 268 38 423 190 120 193 379 258 236 41 426 287 267 15 16
b 54 294 265 386 104 222 163 260 335 387 126 12 268 38 423 190 120 193 379 258 236 41 426 287 267 15 16
b 55 204 265 386 132 6 69 158 38 155 189 48 382 59 229 272
b 56 265 13 112 216 386 104 222 163 99 260 132 153 6 394 69 411 11 39 335 387 126 12 158 268 42 38 423 155 159 160 235 85 175 403 190 120 122 421 281 401 83 347 369 193 379 189 48 124 211 70 224 197 23 58 258 382 73 228 59 236 41 176 376 407 157 426 229 272 287 267 2 86 257 390 147 15 16 283 184 110
b 57 3 13 104 370
b 58 62 270 381 296 146 13 386 217 222 297 150 208 132 394 69 22 393 126 76 42 55 87 4 72 194 105 191 58 389 145 228 41 64 65 229 51
b 59 270 381 296 146 13 386 104 217 222 297 150 208 132 394 69 391 377 22 393 126 76 42 55 87 4 72 194 105 191 18 23 58 389 145 228 41 64 65 116 229 51 110
b 60 381 296 146 13 386 104 217 222 297 150 208 132 394 69 391 377 22 393 126 76 42 55 87 4 72 194 105 191 18 23 58 389 145 228 41 64 65 116 229 51 246 25 110
b 61 410 374 296 146 112 216 104 153 391 87 237 71 347 402 243
b 62 374 296 146 112 216 104 153 391 87 237 30 71 347 402 243
b 63 296 146 13 112 216 386 104 217 222 297 150 208 132 153 394 69 391 377 22 393 126 76 42 55 87 4 72 237 256 194 30 71 347 105 191 18 23 58 389 145 228 41 64 65 116 402 229 243 51 246 25 84 110
b 64 134 34 146 124 26
b 65 34 146 417 124 26 405
b 66 146 13 112 216 386 104 37 141 217 222 297 150 208 132 153 394 69 391 377 46 417 22 393 126 76 42 55 87 4 72 237 256 194 30 421 401 71 347 124 26 405 105 191 18 23 58 389 145 73 336 228 195 41 64 157 65 1 116 402 229 243 51 246 25 378 84 110
b 67 101 112 386 261 232 424 90
b 68 13 112 216 386 104 37 141 217 222 297 150 208 163 99 260 132 153 6 394 69 391 377 46 411 11 417 39 22 393 335 387 126 12 158 268 76 42 55 38 423 155 87 4 370 159 72 160 235 85 237 256 175 194 30 403 190 120 122 421 281 401 83 71 347 369 193 379 189 48 124 211 26 70 405 105 191 18 224 197 23 58 389 258 382 145 73 336 228 195 59 236 41 176 376 407 64 157 65 426 1 116 402 229 272 243 287 267 51 246 2 86 257 25 390 147 15 378 84 16 283 184 110
b 69 112 216 386 104 397 37 141 217 222 297 150 208 163 99 260 132 153 6 394 261 232 69 391 377 46 411 11 417 39 22 393 335 387 126 12 158 424 268 76 42 55 38 423 155 271 220 92 90 87 4 370 159 72 160 235 85 237 256 175 194 30 403 190 120 122 421 281 401 83 71 347 369 193 379 189 48 124 211 26 70 405 105 191 18 224 197 23 58 389 258 382 145 73 336 228 195 59 236 41 176 376 407 64 157 65 426 1 116 402 229 272 243 287 267 51 246 2 86 257 25 390 147 15 378 84 16 283 184 110
b 70 216 386 104 397 37 141 217 222 297 150 208 163 99 260 132 153 6 394 261 232 69 391 377 46 411 11 417 39 22 393 335 387 126 12 158 424 268 76 42 55 38 423 155 271 220 92 90 87 4 370 159 72 160 235 85 237 140 256 175 194 30 403 190 120 122 421 281 401 83 71 347 369 193 379 189 48 124 211 26 70 405 105 191 18 224 197 23 58 389 258 382 145 73 336 228 195 59 236 41 176 376 407 64 157 65 426 1 116 402 229 272 243 287 267 51 246 2 86 257 25 390 147 15 378 84 16 283 184 110
b 71 386 104 397 37 141 217 222 297 150 208 163 99 185 260 132 153 6 394 261 232 69 391 377 46 411 11 417 39 22 393 335 387 126 12 158 424 268 76 42 55 38 423 155 271 220 92 90 87 4 370 159 72 160 235 85 237 140 256 175 194 30 403 190 120 122 421 281 401 83 71 347 369 193 379 189 48 124 211 26 70 405 105 191 18 224 197 23 58 389 258 382 145 73 336 228 195 59 236 41 176 376 407 64 157 65 426 1 116 402 229 272 243 287 267 51 246 2 86 257 25 390 147 15 378 84 16 283 184 110
b 72 104 397 37 141 212 217 222 297 150 208 163 99 185 260 132 153 6 394 261 232 69 391 377 46 411 11 417 39 22 393 335 387 126 12 158 424 268 76 42 55 38 423 155 271 220 92 90 87 4 370 159 72 160 235 85 237 140 256 175 194 30 403 190 120 122 421 281 401 83 71 347 369 193 379 189 48 124 211 26 70 405 105 191 18 224 197 23 58 389 258 382 145 73 336 228 195 59 236 41 176 376 407 64 157 65 426 1 116 402 229 272 243 287 267 51 246 2 86 257 25 390 147 15 378 84 16 283 184 110
b 73 78 217 393 423 160 120 189 131 224
b 74 380 6 87 237
b 75 397 37 141 212 217 222 297 150 208 163 99 185 260 132 153 6 394 261 232 69 276 19 207 391 377 46 411 11 417 130 45 39 373 22 393 335 387 126 12 158 424 268 76 42 55 38 183 423 155 9 271 220 92 219 90 87 4 370 159 144 170 249 93 72 396 160 235 273 85 237 140 256 192 32 199 175 186 139 177 194 162 210 201 30 403 190 180 120 122 421 282 17 281 52 401 83 138 71 347 369 193 379 226 189 31 48 10 365 124 211 129 26 60 70 181 408 405 105 191 395 113 18 224 197 23 58 389 388 258 382 145 372 73 336 228 371 195 79 151 59 236 41 176 376 407 64 157 65 426 1 40 116 187 251 252 234 284 259 402 229 98 272 290 243 174 287 267 51 246 2 86 257 25 390 147 15 378 84 16 283 218 184 245 137 110
b 76 212 217 222 297 150 208 163 99 185 260 132 153 6 394 261 232 69 276 19 207 391 377 46 411 11 417 130 45 39 373 22 393 335 387 126 12 158 424 268 76 42 55 38 183 423 155 9 271 220 92 219 90 87 4 370 159 144 170 249 93 72 396 160 235 273 85 237 140 256 192 32 199 175 186 139 177 194 162 210 201 30 403 190 180 120 122 421 282 17 281 52 401 83 138 71 347 369 193 379 226 189 31 48 10 365 124 211 129 26 60 70 181 408 405 105 191 395 113 18 224 197 23 58 389 388 258 382 145 372 73 336 228 371 195 79 151 59 236 41 176 376 407 64 157 65 426 135 1 40 116 187 251 252 234 284 259 402 229 98 272 290 243 174 287 267 51 246 2 86 257 25 390 147 15 378 84 16 283 218 184 245 137 110
b 77 217 222 297 150 208 163 99 185 260 132 153 6 394 261 232 69 276 19 207 391 377 46 411 11 417 130 45 39 373 22 393 335 387 126 12 158 424 268 76 42 55 38 183 423 155 9 271 220 92 219 90 87 4 370 159 144 170 249 93 72 396 160 235 273 85 237 140 256 192 32 199 175 186 139 177 194 162 210 201 30 247 403 190 180 120 122 421 282 17 281 52 401 83 138 71 347 369 193 379 226 189 31 48 10 365 124 211 129 26 131 60 70 181 408 405 105 191 395 113 18 224 197 23 58 389 388 258 382 145 372 73 336 228 371 195 79 151 59 236 41 176 376 407 64 157 65 426 135 1 40 116 187 251 252 234 284 259 402 229 98 272 290 243 174 287 267 51 246 2 86 257 25 390 147 15 378 84 16 283 218 184 245 137 110
b 78 297 150 208 163 99 185 260 132 153 6 394 261 232 69 276 19 207 391 377 46 411 11 417 130 45 39 373 22 393 335 387 126 12 158 424 268 76 42 55 38 183 423 155 9 271 220 92 219 90 87 4 14 370 159 144 170 249 93 72 396 160 235 273 85 237 140 256 192 32 199 175 186 139 177 194 162 210 201 30 247 403 190 180 120 122 421 282 17 281 52 401 83 138 71 347 369 193 379 226 189 31 48 10 365 124 211 129 26 131 60 70 181 408 405 105 191 395 113 18 224 197 23 58 389 388 258 382 145 372 73 336 228 371 195 79 151 59 236 41 176 376 407 64 157 65 426 135 1 40 116 187 251 252 234 284 259 402 229 98 272 290 243 174 287 267 51 246 2 86 257 25 390 147 15 378 84 16 283 218 184 245 137 110
b 79 99 185 260 132 153 6 394 261 232 69 276 19 207 391 377 46 411 11 417 130 45 39 373 22 393 335 387 126 12 158 424 268 76 42 55 38 183 423 155 9 271 220 92 47 219 90 87 4 14 370 159 144 170 249 93 72 396 160 235 273 85 237 140 256 192 32 199 175 186 139 177 194 162 210 201 30 247 403 190 180 120 122 421 282 17 281 52 401 83 138 71 347 369 193 379 226 189 31 48 10 365 124 211 129 26 131 60 70 181 408 405 105 191 395 113 18 224 197 23 58 389 388 258 382 145 372 73 336 228 371 195 79 151 59 236 41 176 376 407 64 157 65 426 135 1 40 116 187 251 252 234 284 259 402 229 98 272 290 243 174 287 267 51 246 2 86 257 25 390 147 15 378 84 278 16 283 218 184 245 137 110
b 80 153 6 394 261 232 69 276 19 207 391 377 46 411 11 417 130 45 39 373 22 393 335 387 126 12 158 424 268 76 42 55 38 183 423 155 9 271 220 92 47 219 90 87 4 14 370 159 144 170 249 93 72 396 160 235 273 85 237 140 256 192 32 199 175 186 139 177 194 162 210 201 30 247 403 190 180 120 122 421 282 17 281 52 401 83 138 71 347 369 193 379 226 189 31 48 10 365 124 211 129 26 131 60 70 181 408 405 105 191 395 113 18 224 197 23 58 389 388 258 382 145 372 73 336 228 371 195 79 151 59 236 41 176 376 407 64 157 65 426 135 1 40 116 187 251 252 234 284 259 402 229 98 272 290 243 174 287 267 51 246 2 86 257 123 25 390 147 15 378 84 278 16 283 218 184 245 137 110
b 81 261 232 69 276 19 207 391 377 46 411 11 417 130 45 39 373 22 393 335 387 126 12 158 424 268 76 42 55 38 183 423 155 9 271 220 92 47 219 90 87 4 14 370 159 144 170 249 93 72 396 160 235 273 85 237 140 256 192 32 199 175 186 139 177 194 162 210 201 30 247 403 190 180 120 122 421 282 17 281 52 401 83 138 71 347 369 193 379 226 189 31 48 10 365 124 211 129 26 131 60 70 181 408 405 105 191 395 113 18 224 197 23 58 389 388 258 382 145 372 73 336 228 371 195 79 151 59 236 41 176 376 407 64 157 65 426 135 1 40 116 187 251 252 234 284 259 402 229 98 272 290 243 174 254 287 267 51 246 2 86 257 123 25 390 147 15 378 84 278 16 283 218 184 245 137 110
b 82 69 276 19 207 391 377 46 411 11 417 130 45 39 373 22 393 335 387 126 12 158 424 268 76 42 55 38 183 423 155 9 271 220 92 47 219 90 87 4 14 370 159 144 170 249 93 72 396 160 235 273 85 237 140 256 192 32 199 175 186 139 177 194 171 162 210 201 30 247 403 190 180 120 122 421 282 17 281 52 401 83 138 71 347 369 193 379 226 189 31 48 10 365 124 211 129 26 131 60 70 181 408 405 105 191 395 113 18 224 197 23 58 389 388 258 382 145 372 73 336 228 371 195 79 151 59 236 41 176 376 407 64 157 65 426 135 1 40 116 187 251 252 234 284 259 402 229 98 272 290 243 174 254 287 267 51 246 2 86 257 123 25 142 390 147 15 378 84 278 16 283 218 184 245 137 110
b 83 392 68 166 11 417 38 83 389 407 390
b 84 68 56 102 152 233 166 292 404 11 417 38 370 159 144 93 237 30 180 281 52 83 347 389 388 258 372 79 407 267 28 390
b 85 56 7 102 152 233 166 292 404 11 417 38 370 159 144 93 237 30 180 281 52 83 347 389 388 258 372 79 407 267 28 390
b 86 7 27 82 102 152 179 233 166 292 21 404 19 11 417 45 335 126 76 55 38 4 370 159 144 93 85 237 30 180 281 52 83 347 379 395 389 388 258 372 79 407 65 267 28 248 390 278
b 87 27 182 82 102 152 179 233 166 292 21 404 409 19 11 417 45 335 126 76 55 38 4 370 159 144 93 85 237 30 403 180 281 52 83 347 379 395 389 388 258 372 79 407 65 229 267 28 248 390 278
b 88 182 82 102 152 179 233 166 292 21 404 409 19 11 417 45 335 126 76 55 38 4 370 159 144 93 85 237 171 30 403 180 281 52 83 71 347 193 379 395 389 388 258 372 79 376 407 65 284 229 98 267 28 248 390 278
b 89 107 250 117 188 61 35 255 82 152 179 233 231 425 291 404 391 377 55 47 160 273 30 122 105 191 395 18 224 58 388 258 382 372 151 41 187 402 229 243 246
b 90 250 117 188 61 35 255 82 152 179 233 231 425 291 404 391 377 424 55 47 160 273 32 30 122 365 105 191 395 18 224 58 388 258 382 372 151 41 187 402 229 243 246 184
b 91 117 188 61 35 255 82 152 179 233 231 425 166 291 128 404 391 377 424 55 47 160 273 32 30 122 138 365 105 191 395 18 224 58 388 258 382 372 151 41 187 402 229 243 246 184
b 92 324 188 255 102 179 279 373 22 38 183 87 281 31 48 10
b 93 188 61 35 255 82 102 152 179 266 233 231 425 166 5 291 128 279 404 391 377 411 373 22 424 55 38 183 9 92 47 90 87 4 14 160 273 140 32 30 122 281 138 31 48 10 365 105 191 395 113 18 224 23 58 388 258 382 372 79 151 41 376 187 402 229 243 246 257 184
b 94 109 61 158 90 210
b 95 61 35 255 82 102 152 179 266 233 231 425 166 5 291 221 128 279 404 391 377 411 373 22 158 424 55 38 183 9 92 47 90 87 4 14 160 273 140 32 171 210 30 122 281 138 31 48 10 365 105 191 395 113 18 224 23 58 388 258 382 372 79 151 41 376 187 402 229 243 246 257 184
b 96 20 263 262 35 96 21 404 409 423 140 256 162 210 180 120 421 401 124 23 151 234
b 97 263 262 35 102 96 21 404 409 423 140 256 162 210 180 120 421 17 401 379 124 23 151 234 98 246
b 98 262 35 102 96 21 404 409 423 140 256 162 210 180 120 421 17 401 379 124 23 151 234 98 51 246 390
b 99 35 255 82 102 152 179 266 233 231 425 166 96 5 291 221 128 279 21 404 409 391 377 411 373 22 158 424 55 38 183 423 9 92 47 90 87 4 14 160 273 140 256 32 171 162 210 30 180 120 122 421 17 281 401 138 379 31 48 10 365 124 105 191 395 113 18 224 23 58 388 258 382 372 79 151 41 376 187 234 402 229 98 243 51 246 257 390 184
b 100 384 43 9 144 73 287
b 101 43 168 9 144 162 73 151 290 287
b 102 168 205 152 266 5 383 404 11 335 38 183 9 144 162 52 73 371 151 290 287 248
b 103 205 255 152 266 74 96 5 383 404 11 335 38 183 9 144 162 281 52 73 371 151 290 287 248
b 104 255 82 102 152 179 266 233 231 425 166 74 96 5 383 291 221 128 279 21 404 409 391 377 411 11 373 22 335 158 424 55 38 183 423 9 92 47 90 87 4 14 144 160 273 140 256 32 171 162 210 30 180 120 122 421 17 281 52 401 138 369 379 31 48 10 365 124 105 191 395 113 18 224 23 58 388 258 382 372 73 371 79 151 41 376 64 187 234 402 229 98 290 243 287 51 246 257 248 390 184
b 105 82 102 152 179 266 233 231 425 166 74 96 5 383 291 221 128 292 279 21 404 409 19 391 377 411 11 417 45 373 22 335 126 158 424 76 55 38 183 423 9 92 47 90 87 4 14 370 159 144 93 160 273 85 237 140 256 32 171 162 210 30 403 180 120 122 421 17 281 52 401 83 138 71 347 369 193 379 31 48 10 365 124 105 191 395 113 18 224 23 58 389 388 258 382 372 73 371 79 151 41 376 407 64 65 187 234 284 402 229 98 290 243 287 267 51 246 257 28 248 390 278 184
b 106 102 152 179 266 233 231 425 166 203 74 96 5 383 291 221 128 292 279 21 404 409 19 391 377 411 11 417 45 373 22 335 126 158 424 76 55 38 183 423 9 92 47 90 87 4 14 370 159 144 93 160 273 85 237 140 256 32 171 162 210 30 403 180 120 122 421 17 281 52 401 83 138 71 347 369 193 379 31 48 10 365 124 105 191 395 113 18 224 23 58 389 388 258 382 372 73 371 79 151 41 376 407 64 65 187 234 284 402 229 98 290 243 287 267 51 246 257 28 248 390 278 184
b 107 152 179 266 233 231 425 166 203 74 96 5 383 291 221 128 292 279 21 404 409 19 391 377 411 11 417 45 373 22 335 126 158 424 76 55 38 183 423 9 92 47 90 87 4 14 370 159 144 249 93 160 273 85 237 140 256 32 171 162 210 30 247 403 180 120 122 421 17 281 52 401 83 138 71 347 369 193 379 31 48 10 365 124 105 191 395 113 18 224 23 58 389 388 258 382 372 73 371 79 151 41 376 407 64 65 187 234 284 402 229 98 290 243 287 267 51 246 86 257 28 248 390 278 184
b 108 179 266 233 231 425 166 203 74 96 5 383 291 221 128 292 279 21 404 409 276 19 391 377 411 11 417 45 373 22 335 126 158 424 76 55 38 183 423 9 92 47 90 87 4 14 370 159 144 249 93 160 273 85 237 140 256 32 171 162 210 30 247 403 180 120 122 421 17 281 52 401 83 138 71 347 369 193 379 31 48 10 365 124 105 191 395 113 18 224 23 58 389 388 258 382 372 73 371 79 151 41 376 407 64 65 187 234 284 402 229 98 290 243 287 267 51 246 86 257 28 248 390 278 184
b 109 53 44 266 125 409 32 199 171 403 190 83 369 48 365 124 195 59 116 278
b 110 44 111 277 266 233 295 125 409 391 45 387 183 423 14 32 199 171 403 190 122 83 369 48 365 124 211 129 26 18 382 195 59 116 402 278
b 111 111 33 277 266 233 295 154 125 409 391 45 387 183 423 14 249 32 199 171 403 190 122 83 369 48 365 124 211 129 26 18 382 195 59 116 402 278
b 112 33 277 266 233 295 154 125 409 391 45 387 183 423 14 249 72 32 199 171 403 190 122 52 83 369 48 365 124 211 129 26 18 382 195 59 116 402 278
b 113 161 277 295 183 402
b 114 277 266 233 231 295 154 125 409 391 45 387 268 183 423 14 249 72 32 199 171 403 190 122 52 83 369 31 48 365 124 211 129 26 60 18 382 195 59 135 116 402 278 137
b 115 266 233 231 425 295 166 203 154 74 96 5 383 291 125 221 128 292 279 21 404 409 276 19 391 377 411 11 417 45 373 22 335 387 126 158 424 268 76 55 38 183 423 9 92 47 90 87 4 14 370 159 144 249 93 72 160 273 85 237 140 256 32 199 171 162 210 30 247 403 190 180 120 122 421 17 281 52 401 83 138 71 347 369 193 379 31 48 10 365 124 211 129 26 60 105 191 395 113 18 224 23 58 389 388 258 382 372 73 371 195 79 151 59 41 376 407 64 65 135 116 187 234 284 402 229 98 290 243 287 267 51 246 86 257 28 123 248 390 278 184 137
b 116 233 231 425 295 166 203 154 74 96 5 383 291 125 221 128 292 279 21 404 409 276 19 391 377 411 11 417 45 373 22 335 387 126 12 158 424 268 76 55 38 183 423 9 92 47 90 87 4 14 370 159 144 249 93 72 160 273 85 237 140 256 32 199 186 171 162 210 30 247 403 190 180 120 122 421 17 281 52 401 83 138 71 347 369 193 379 31 48 10 365 124 211 129 26 60 105 191 395 113 18 224 23 58 389 388 258 382 372 73 371 195 79 151 59 41 376 407 64 65 135 116 187 234 284 402 229 98 290 243 287 267 51 246 86 257 28 123 248 390 278 184 137
b 117 103 385 89 366 173 302 94 203 96 5 404 170 249 396 139 177 83 181 2 245
b 118 385 89 133 366 173 302 94 295 166 203 96 5 404 393 12 183 170 249 396 139 177 83 181 389 64 367 2 245
b 119 89 133 366 173 302 94 295 166 203 96 5 404 393 12 183 170 249 396 139 177 83 131 181 389 228 64 367 2 245
b 120 77 133 302 291 125 221 21 47 219 90 17
b 121 241 133 12 175
b 122 133 366 173 302 94 295 166 203 74 96 5 291 125 221 292 21 404 393 12 183 47 219 90 170 249 396 175 186 139 177 17 83 211 131 181 389 228 64 367 2 245
b 123 244 200 418 302 24 425 74 387 159 421 129 60 224 197 389 157 51 257
b 124 200 169 418 302 24 425 74 125 387 158 424 268 159 421 138 129 60 224 197 58 389 372 59 236 157 51 257 123 184
b 125 169 418 173 302 24 280 425 74 125 387 158 424 268 159 421 52 138 129 60 224 197 58 389 372 59 236 157 51 257 123 184
b 126 398 54 418 280 387 177 17 367
b 127 54 418 94 280 387 72 177 17 367
b 128 418 366 173 302 94 24 280 425 74 125 387 158 424 268 159 72 177 421 17 52 138 129 60 224 197 58 389 372 59 236 157 367 51 257 123 184
b 129 366 173 302 94 24 280 425 295 166 203 74 96 5 291 125 221 292 21 404 393 387 12 158 424 268 183 47 219 90 159 170 249 72 396 192 175 186 139 177 421 17 52 83 138 369 211 129 131 60 181 224 197 58 389 145 372 228 59 236 64 157 367 51 2 257 123 184 245
b 130 173 302 94 24 280 425 295 166 203 154 74 96 5 291 125 221 292 21 404 393 387 12 158 424 268 42 183 47 219 90 159 170 249 72 396 192 175 186 139 177 421 17 52 83 138 369 211 129 131 60 70 181 224 197 58 389 145 372 228 59 236 64 157 367 51 2 257 123 184 245
b 131 302 94 24 280 425 295 166 203 154 74 96 5 291 125 221 292 21 404 393 387 12 158 424 268 42 183 271 47 219 90 159 170 249 72 396 192 175 186 139 177 421 17 52 83 138 369 211 129 131 60 70 181 224 197 58 389 145 372 228 59 236 64 157 367 51 2 257 123 184 245
b 132 415 274 183 220 192 131 60 367
b 133 274 148 94 24 128 183 220 140 192 201 247 379 226 31 10 365 131 60 73 79 151 41 176 135 251 367 254 278 110
b 134 148 143 94 24 128 292 279 409 19 207 46 39 183 220 140 192 199 201 247 403 17 379 226 31 10 365 131 60 145 73 79 151 59 41 176 64 135 251 367 254 246 278 110
b 135 100 288 240 143 55 155 181 408 405 372 407 1 40 187
b 136 288 240 143 55 155 256 282 189 181 408 405 372 407 1 40 187
b 137 240 143 55 155 256 180 282 193 189 181 408 405 372 407 1 40 187
b 138 143 94 24 425 154 128 292 279 409 19 207 46 39 268 55 183 155 220 140 256 192 199 201 247 403 180 282 17 193 379 226 189 31 10 365 131 60 181 408 405 145 372 73 79 151 59 41 176 407 64 135 1 40 187 251 367 254 246 278 110
b 139 94 24 280 425 295 166 203 154 74 96 5 291 125 221 128 292 279 21 404 409 19 207 46 39 393 387 12 158 424 268 42 55 183 155 271 220 47 219 90 159 170 249 72 396 140 256 192 199 175 186 139 177 201 247 403 180 421 282 17 52 83 138 369 193 379 226 189 31 10 365 211 129 131 60 70 181 408 405 105 224 197 58 389 145 372 73 228 79 151 59 236 41 176 407 64 157 135 1 40 187 251 367 254 51 246 2 257 123 278 184 245 110
b 140 121 81 91 80 178 289 383 221 417 130 45 4 370 247 71 226 189 388 258 376
b 141 81 91 80 178 289 154 383 221 292 279 21 417 130 45 183 4 370 247 71 226 189 181 197 389 388 258 145 372 236 376 28 25 248 390
b 142 91 80 178 289 154 383 291 221 292 279 21 417 130 45 183 4 370 247 71 226 189 181 405 197 389 388 258 145 372 73 195 236 376 116 187 28 25 248 390
b 143 375 178 289 280 373 226 18 272 147 283
b 144 178 289 280 154 383 291 221 292 279 21 417 130 45 373 183 4 370 256 247 71 226 189 181 405 18 197 389 388 258 145 372 73 195 236 376 116 187 272 28 25 248 390 147 149 283
b 145 289 280 154 383 291 221 292 279 21 417 130 45 373 183 4 370 256 139 247 71 226 189 129 181 405 18 197 389 388 258 382 145 372 73 336 195 236 376 116 187 272 28 25 248 390 147 149 283
b 146 280 425 295 166 203 154 74 96 5 383 291 125 221 128 292 279 21 404 409 19 207 46 417 130 45 39 373 393 387 12 158 424 268 42 55 183 155 271 220 47 219 90 4 370 159 170 249 72 396 140 256 192 199 175 186 139 177 201 247 403 180 421 282 17 52 83 138 71 369 193 379 226 189 31 10 365 211 129 131 60 70 181 408 405 105 18 224 197 58 389 388 258 382 145 372 73 336 228 195 79 151 59 236 41 176 376 407 64 157 135 1 40 116 187 251 367 272 254 51 246 2 257 28 123 25 248 390 147 149 278 283 184 245 110
b 147 95 291 391 46 155 1 252
b 148 416 279 126 194 251
b 149 209 404 249 135 110
b 150 425 295 166 203 154 74 96 5 383 291 125 221 128 292 279 21 404 409 276 19 207 391 377 46 411 11 417 130 45 39 373 22 393 335 387 126 12 158 424 268 76 42 55 38 183 423 155 9 271 220 92 47 219 90 87 4 14 370 159 144 170 249 93 72 396 160 273 85 237 140 256 192 32 199 175 186 139 177 194 171 162 210 201 30 247 403 190 180 120 122 421 282 17 281 52 401 83 138 71 347 369 193 379 226 189 31 48 10 365 124 211 129 26 131 60 70 181 408 405 105 191 395 113 18 224 197 23 58 389 388 258 382 145 372 73 336 228 371 195 79 151 59 236 41 176 376 407 64 157 65 135 1 40 116 187 251 367 234 284 402 229 98 272 290 243 254 287 267 51 246 2 86 257 28 123 25 248 390 147 149 278 283 184 245 137 110
b 151 166 203 154 74 96 5 383 291 125 221 128 292 279 21 404 409 276 19 207 391 377 46 411 11 417 130 45 39 373 22 393 335 387 126 12 158 424 268 76 42 55 38 183 423 155 9 271 220 92 47 219 90 87 4 14 370 159 144 170 249 93 72 396 160 235 273 85 237 140 256 192 32 199 175 186 139 177 194 171 162 210 201 30 247 403 190 180 120 122 421 282 17 281 52 401 83 138 71 347 369 193 379 226 189 31 48 10 365 124 211 129 26 131 60 70 181 408 405 105 191 395 113 18 224 197 23 58 389 388 258 382 145 372 73 336 228 371 195 79 151 59 236 41 176 376 407 64 157 65 135 1 40 116 187 251 367 234 284 402 229 98 272 290 243 254 287 267 51 246 2 86 257 28 123 25 248 390 147 149 278 283 184 245 137 110
b 152 96 5 383 291 125 221 128 292 279 21 404 409 276 19 207 391 377 46 411 11 417 130 45 39 373 22 393 335 387 126 12 158 424 268 76 42 55 38 183 423 155 9 271 220 92 47 219 90 87 4 14 370 159 144 170 249 93 72 396 160 235 273 85 237 140 256 192 32 199 175 186 139 177 194 171 162 210 201 30 247 403 190 180 120 122 421 282 17 281 52 401 83 138 71 347 369 193 379 226 189 31 48 10 365 124 211 129 26 131 60 70 181 408 405 105 191 395 113 18 224 197 23 58 389 388 258 382 145 372 73 336 228 371 195 79 151 59 236 41 176 376 407 64 157 65 135 1 40 116 187 251 367 234 284 402 229 98 272 290 243 254 287 267 51 246 2 86 257 28 123 25 248 142 390 147 149 278 16 283 184 245 137 110
b 153 291 125 221 128 292 279 21 404 409 276 19 207 391 377 46 411 11 417 130 45 39 373 22 393 335 387 126 12 158 424 268 76 42 55 38 183 423 155 9 271 220 92 47 219 90 87 4 14 370 159 144 170 249 93 72 396 160 235 273 85 237 140 256 192 32 199 175 186 139 177 194 171 162 210 201 30 247 403 190 180 120 122 421 282 17 281 52 401 83 138 71 347 369 193 379 226 189 31 48 10 365 124 211 129 26 131 60 70 181 408 405 105 191 395 113 18 224 197 23 58 389 388 258 382 145 372 73 336 228 371 195 79 151 59 236 41 176 376 407 64 157 65 135 1 40 116 187 251 367 252 234 284 402 229 98 272 290 243 254 287 267 51 246 2 86 257 28 123 25 248 142 390 147 149 278 16 283 184 245 137 110
b 154 420 335 38 17 105 259
b 155 276 19 207 391 377 46 411 11 417 130 45 39 373 22 393 335 387 126 12 158 424 268 76 42 55 38 183 423 155 9 271 220 92 47 219 90 87 4 14 370 159 144 170 249 93 72 396 160 235 273 85 237 140 256 192 32 199 175 186 139 177 194 171 162 210 201 30 247 403 190 180 120 122 421 282 17 281 52 401 83 138 71 347 369 193 379 226 189 31 48 10 365 124 211 129 26 131 60 70 181 408 405 105 191 395 113 18 224 197 23 58 389 388 258 382 145 372 73 336 228 371 195 79 151 59 236 41 176 376 407 64 157 65 426 135 1 40 116 187 251 367 252 234 284 259 402 229 98 272 290 243 174 254 287 267 51 246 2 86 257 28 123 25 248 142 390 147 15 149 378 84 278 16 283 218 184 245 137 110
b 156 307 305 327 344 206 309
b 157 305 320 301 338 327 344 349 206 309 285 51
b 158 320 322 301 338 327 344 349 206 309 285 51
b 159 322 63 301 338 327 346 344 349 206 309 285 51
b 160 63 301 338 327 346 344 349 206 309 285 116 187 234 284 290 174 51 84
b 161 356 321 304 317 301 333 327 254
b 162 323 321 304 346 354
b 163 321 304 317 301 333 327 346 351 354 254 28 123 390 137
b 164 304 317 301 333 327 346 361 351 354 254 28 123 390 137
b 165 345 317 15 184
b 166 317 301 333 342 327 346 361 351 354 254 28 123 390 15 184 137
b 167 301 333 338 342 327 346 344 349 361 351 206 354 309 285 116 187 234 284 290 174 254 51 28 123 390 15 84 184 137
b 168 172 329 319 362 364 333 338 327 206 259 174 245
b 169 329 319 362 364 333 338 327 346 361 351 206 309 259 174 245
b 170 319 362 364 333 338 327 346 361 351 206 309 259 174 28 245
b 171 343 362 333
b 172 362 364 333 338 327 346 308 361 351 206 309 259 174 28 142 16 245
b 173 348 363 306 364 342 327 344 312 311 86 218 110
b 174 363 306 364 338 342 327 344 312 311 86 218 110
b 175 337 325 306 333 346 402 110
b 176 325 306 333 346 308 426 135 402 28 110
b 177 306 364 333 338 342 327 346 344 312 311 308 426 135 402 86 28 218 110
b 178 364 333 338 342 327 346 344 312 311 308 361 351 206 309 426 135 259 402 174 86 28 142 16 218 245 110
b 179 333 338 342 327 346 344 349 312 311 308 361 351 206 354 309 285 426 135 116 187 234 284 259 402 290 174 254 51 86 28 123 142 390 15 84 16 218 184 245 137 110
b 180 314 352 359 339 242 334 308 2 218 184
b 181 352 359 339 242 334 308 1 40 2 218 184
b 182 196 359 272 283 218
b 183 330 357 359 308 51 25 390 137
b 184 357 359 339 308 206 98 51 25 390 137
b 185 359 339 242 334 308 206 1 40 98 272 51 2 25 390 283 218 184 137
b 186 355 332 334 349 312 285 40 123 184 110
b 187 332 340 339 242 334 344 349 312 351 285 135 40 367 123 16 184 110
b 188 340 298 339 242 334 344 349 312 351 285 135 40 367 123 16 184 110
b 189 298 339 242 334 344 349 312 351 206 309 285 135 40 367 123 16 184 110
b 190 318 242 354 309 285 98 2 86 147 15 110
b 191 339 242 334 344 349 312 308 361 351 206 309 285 135 1 40 367 98 272 51 2 123 25 390 16 283 218 184 137 110
b 192 242 334 344 349 312 308 361 351 206 354 309 285 135 1 40 251 367 252 98 272 287 51 2 86 257 123 25 390 147 15 16 283 218 184 137 110
b 193 310 253 293 334 354 51 147
b 194 253 293 334 311 351 354 290 267 51 147 278 283
b 195 334 344 349 312 311 308 361 351 206 354 309 285 135 1 40 251 367 252 98 272 290 287 267 51 2 86 257 123 25 390 147 15 278 16 283 218 184 137 110
b 196 299 309 149 137
b 197 344 349 312 311 308 361 351 206 354 309 285 426 135 1 40 116 187 251 367 252 234 284 259 402 98 272 290 174 254 287 267 51 2 86 257 28 123 25 142 390 147 15 84 278 16 283 218 184 245 137 110
b 198 311 308 361 351 206 354 309 285 426 135 1 40 116 187 251 367 252 234 284 259 402 98 272 290 174 254 287 267 51 2 86 257 28 123 25 142 390 147 15 378 84 278 16 283 218 184 245 137 110
b 199 206 354 309 285 426 135 1 40 116 187 251 367 252 234 284 259 402 229 98 272 290 243 174 254 287 267 51 246 2 86 257 28 123 25 248 142 390 147 15 378 84 278 16 283 218 184 245 137 110
b 200 309 285 426 135 1 40 116 187 251 367 252 234 284 259 402 229 98 272 290 243 174 254 287 267 51 246 2 86 257 28 123 25 248 142 390 147 15 149 378 84 278 16 283 218 184 245 137 110
b 201 300
b 202 350
b 203 353
b 204 414
1 49
49 50
50 51
51 56
56 68
68 69
69 70
70 71
71 72
72 75
75 76
76 77
77 78
78 79
79 80
80 81
81 82
82 155
155 153
153 152
152 151
151 150
75 48
150 116
116 115
48 47
150 146
47 41
41 40
40 39
115 108
108 107
107 106
106 105
146 139
105 104
104 99
39 31
31 30
99 95
139 131
131 130
95 93
130 129
68 66
39 37
139 138
105 88
66 63
37 35
88 87
35 34
146 145
87 86
155 200
200 199
199 198
198 197
93 91
145 144
30 28
138 134
63 60
91 90
115 114
60 59
129 122
28 27
90 89
197 195
144 142
114 112
197 179
112 111
30 29
129 128
59 58
195 192
111 110
142 141
86 85
128 125
85 84
192 191
134 133
122 119
179 167
125 124
119 118
99 98
56 54
179 178
54 53
34 33
98 97
104 103
27 26
53 52
37 36
103 102
97 96
47 46
118 117
141 140
46 45
110 109
191 185
191 189
167 160
124 123
178 177
45 44
138 137
178 172
189 188
188 187
167 166
137 136
93 92
63 62
56 55
172 170
62 61
170 169
166 164
136 135
164 163
44 43
177 174
160 159
174 173
169 168
195 194
122 120
192 190
185 181
159 158
158 157
41 25
144 143
43 42
84 83
185 184
177 176
181 180
187 186
77 73
128 127
102 101
133 132
163 161
184 183
127 126
194 193
25 24
153 147
176 175
69 67
75 154
66 65
101 100
157 156
150 148
95 94
185 182
112 113
65 64
139 149
163 162
41 38
80 74
122 121
37 32
200 196
24 23
68 57
166 165
139 22
170 171
171 15
189 18
131 13
172 14
186 20
25 8
102 21
121 9
34 12
12 11
102 10
184 19
70 17
175 16
106 7
72 4
134 5
160 6
186 3
18 2
1 201
1 202
1 203
1 204
